Gurobi 12.0.3:   lim:time = 14400

  mip:bestbound = 1

Set parameter LogToConsole to value 1

  tech:outlev = 1

Set parameter Cuts to value 3

  cut:cuts = 3

Set parameter Presolve to value 2

  pre:solve = 2

Set parameter MIPFocus to value 2

  mip:focus = 2

Set parameter Symmetry to value 2

  mip:symmetry = 2

Set parameter InfUnbdInfo to value 1

Gurobi Optimizer version 12.0.3 build v12.0.3rc0 (win64 - Windows 11.0 (26100.2))



CPU model: 12th Gen Intel(R) Core(TM) i7-12700, instruction set [SSE2|AVX|AVX2]

Thread count: 12 physical cores, 20 logical processors, using up to 20 threads



Non-default parameters:

TimeLimit  14400

MIPFocus  2

Symmetry  2

Cuts  3

InfUnbdInfo  1

Presolve  2



Optimize a model with 358 rows, 699 columns and 3926 nonzeros

Model fingerprint: 0xca411fe3

Model has 6 quadratic objective terms

Model has 9 quadratic constraints

Variable types: 36 continuous, 663 integer (0 binary)

Coefficient statistics:

  Matrix range     [1e+00, 1e+05]

  QMatrix range    [1e+00, 1e+00]

  QLMatrix range   [1e+00, 1e+01]

  Objective range  [3e+00, 1e+02]

  QObjective range [2e+00, 2e+00]

  Bounds range     [1e+00, 1e+02]

  RHS range        [1e+00, 1e+05]

  QRHS range       [1e+02, 1e+02]

Presolve removed 19 rows and 57 columns

Presolve time: 0.10s

Presolved: 753 rows, 1038 columns, 6250 nonzeros

Variable types: 258 continuous, 780 integer (732 binary)

Found heuristic solution: objective 547.6900000

Root relaxation presolve removed 24 rows and 7 columns

Root relaxation presolved: 604 rows, 910 columns, 9658 nonzeros





Root relaxation: objective 7.082095e+01, 110 iterations, 0.01 seconds (0.01 work units)



    Nodes    |    Current Node    |     Objective Bounds      |     Work

 Expl Unexpl |  Obj  Depth IntInf | Incumbent    BestBd   Gap | It/Node Time



     0     0   70.82095    0   40  547.69000   70.82095  87.1%     -    0s

H    0     0                     418.9100000   82.08417  80.4%     -    0s

H    0     0                     399.4100000   82.43283  79.4%     -    0s

     0     0   89.03045    0   40  399.41000   89.03045  77.7%     -    0s

     0     0   89.03045    0   26  399.41000   89.03045  77.7%     -    0s

     0     0   89.03045    0   26  399.41000   89.03045  77.7%     -    0s

H    0     0                     227.8400000   89.03045  60.9%     -    0s

     0     0   92.89913    0   45  227.84000   92.89913  59.2%     -    0s

     0     0   93.68571    0   48  227.84000   93.68571  58.9%     -    0s

H    0     0                     225.4300000   94.21770  58.2%     -    0s

H    0     0                     223.7900000   94.21770  57.9%     -    0s

H    0     0                     214.1100000   94.21770  56.0%     -    0s

H    0     0                     211.8500000   94.21770  55.5%     -    0s

     0     0   94.21770    0   13  211.85000   94.21770  55.5%     -    0s

     0     0   96.72030    0   58  211.85000   96.72030  54.3%     -    0s

     0     0   96.76970    0   58  211.85000   96.76970  54.3%     -    0s

     0     0  100.58770    0   62  211.85000  100.58770  52.5%     -    1s

     0     0  101.03412    0   62  211.85000  101.03412  52.3%     -    1s

     0     2  101.03412    0   62  211.85000  101.03412  52.3%     -    1s

H  281   214                     203.4700000  124.80533  38.7%  12.1    1s

H 1026   606                     202.3900000  140.14071  30.8%  10.4    1s

H 1494   804                     202.3700000  141.76136  29.9%  10.8    1s

H 2378  1087                     201.1000000  146.38700  27.2%  12.1    1s



Cutting planes:

  Learned: 10

  Gomory: 14

  Lift-and-project: 8

  Cover: 26

  Implied bound: 85

  Projected implied bound: 5

  Clique: 3

  MIR: 80

  StrongCG: 1

  Flow cover: 405

  Inf proof: 13

  Zero half: 360

  RLT: 152

  Relax-and-lift: 30



Explored 14792 nodes (186629 simplex iterations) in 3.87 seconds (3.74 work units)

Thread count was 20 (of 20 available processors)



Solution count 10: 201.1 202.37 202.39 ... 399.41



Optimal solution found (tolerance 1.00e-04)

Best objective 2.011000000000e+02, best bound 2.011000000000e+02, gap 0.0000%



AMPL MP initial flat model has 699 variables (0 integer, 663 binary);

Objectives: 1 quadratic; 

Constraints:  358 linear; 9 quadratic;



AMPL MP final model has 699 variables (0 integer, 663 binary);

Objectives: 1 quadratic; 

Constraints:  358 linear; 9 quadratic;





-----RESULTS INFO-----
running_time:  3.922
TC.best_bound:  201.1
TC:  201.09999999999997
MIP Gap (%):  1.4133122541225267e-14
=== Vehicle Routes ===
Vehicle 1: 0 → 3
Vehicle 1: 1 → 17
Vehicle 1: 3 → 10
Vehicle 1: 10 → 13
Vehicle 1: 13 → 1
Vehicle 2: 0 → 2
Vehicle 2: 2 → 17
Vehicle 3: 0 → 17

=== Full Vehicle Routes ===
Vehicle 1: 0 → 3 → 10 → 13 → 1 → 0 (88<100)
Vehicle 2: 0 → 2 → 0 (13<100)
Vehicle 3: 0 → 0 (0<100)
Arc used by MRT line: y variables:
MRT used: 10 → 11
MRT used: 13 → 12
Customer assigment to PL: u variables:
4 13
5 12
6 13
7 13
8 12
9 11
Node is served by regular vehicle: g variables:
1
2
3
10
13
Customer assigment to Home delivery: gm variables:
1
2
3
Node total demands: ntd variables:
1 13 1
2 13 1
3 12 1
7 0 0
8 0 0
9 0 0
16 0 0
10 2 1
11 0 0
12 0 0
13 61 1
14 0 0
15 0 0
Customer's demand delivered to PL: l variables:
4
5
6
7
8
9
Lockers load <= capacity:
0 <= 90
0 <= 83
2 <= 100
16 <= 70
45 <= 87
0 <= 73
0 <= 71
